0000000000000000
0000000000000000
0010000000010000
0011000000010000
0001100000010000
0000111000010000
0000011100110000
0000010110100000
0000010011100000
0000110001100000
0000100000110000
0000100000011000
0000100000001100
0000100000000110
0000000000000000
0000000000000000
